% clingo version 5.3.0
% Reading from ...rk_instances/benchmark_instance_5-5.lp ...
% Solving...
% Answer: 3
ANSWER
u_piece(1). u_piece(6). u_piece(20). u_piece(22). l_piece(16,17,11). l_piece(24,23,19). num_u_pieces(4). num_l_pieces(2).
COST 4
OPTIMUM
% 
% Models         : 3
%   Optimum      : yes
% Optimization   : 4
% Calls          : 1
% Time           : 0.006s (Solving: 0.00s 1st Model: 0.00s Unsat: 0.00s)
% CPU Time       : 0.006s
